NAME           
ROWS
 N  obj     
 G  c1      
COLUMNS
    MARK0000  'MARKER'                 'INTORG'
    x1        obj                -11   c1                   1
    x2        obj                -12   c1                   2
    x3        obj                -13   c1                   7
    x4        obj                -15   c1                   8
    x5        obj                -15   c1                   9
    x6        obj                -11   c1                   3
    x7        obj                -12   c1                   6
    x8        obj                -13   c1                   4
    x9        obj                -15   c1                   8
    x10       obj                -15   c1                   7
    x11       obj                -11   c1                   9
    x12       obj                -12   c1                   2
    x13       obj                -13   c1                   4
    x14       obj                -15   c1                   6
    x15       obj                -15   c1                   3
    x16       obj                -11   c1                   8
    x17       obj                -12   c1                   6
    x18       obj                -13   c1                   5
    x19       obj                -15   c1                   7
    x20       obj                -15   c1                   9
    x21       obj                -11   c1                   7
    x22       obj                -12   c1                   3
    x23       obj                -13   c1                   5
    x24       obj                -15   c1                   3
    x25       obj                -15   c1                   6
    x26       obj                -11   c1                   8
    x27       obj                -12   c1                   7
    x28       obj                -13   c1                   8
    x29       obj                -15   c1                   8
    x30       obj                -15   c1                   6
    x31       obj                -11   c1                   8
    x32       obj                -12   c1                   8
    x33       obj                -13   c1                   7
    x34       obj                -15   c1                   8
    x35       obj                -15   c1                   9
    x36       obj                -11   c1                   8
    x37       obj                -12   c1                   6
    x38       obj                -13   c1                   5
    x39       obj                -15   c1                   8
    x40       obj                -15   c1                   9
    x41       obj                -11   c1                   7
    x42       obj                -12   c1                   8
    x43       obj                -13   c1                   5
    x44       obj                -15   c1                   8
    x45       obj                -15   c1                   8
    x46       obj                -11   c1                   4
    x47       obj                -12   c1                   7
    x48       obj                -13   c1                   5
    x49       obj                -15   c1                   6
    x50       obj                -15   c1                   5
    x51       obj                -11   c1                   7
    x52       obj                -12   c1                   8
    x53       obj                -13   c1                   5
    x54       obj                -15   c1                   8
    x55       obj                -15   c1                   8
    x56       obj                -11   c1                   4
    x57       obj                -12   c1                   7
    x58       obj                -13   c1                   5
    x59       obj                -15   c1                   6
    x60       obj                -50   c1                   1
    MARK0001  'MARKER'                 'INTEND'
RHS
RANGES
    rng       c1                 120
BOUNDS
 UP bnd       x1                   1
 UP bnd       x2                   1
 UP bnd       x3                   1
 UP bnd       x4                   1
 UP bnd       x5                   1
 UP bnd       x6                   1
 UP bnd       x7                   1
 UP bnd       x8                   1
 UP bnd       x9                   1
 UP bnd       x10                  1
 UP bnd       x11                  1
 UP bnd       x12                  1
 UP bnd       x13                  1
 UP bnd       x14                  1
 UP bnd       x15                  1
 UP bnd       x16                  1
 UP bnd       x17                  1
 UP bnd       x18                  1
 UP bnd       x19                  1
 UP bnd       x20                  1
 UP bnd       x21                  1
 UP bnd       x22                  1
 UP bnd       x23                  1
 UP bnd       x24                  1
 UP bnd       x25                  1
 UP bnd       x26                  1
 UP bnd       x27                  1
 UP bnd       x28                  1
 UP bnd       x29                  1
 UP bnd       x30                  1
 UP bnd       x31                  1
 UP bnd       x32                  1
 UP bnd       x33                  1
 UP bnd       x34                  1
 UP bnd       x35                  1
 UP bnd       x36                  1
 UP bnd       x37                  1
 UP bnd       x38                  1
 UP bnd       x39                  1
 UP bnd       x40                  1
 UP bnd       x41                  1
 UP bnd       x42                  1
 UP bnd       x43                  1
 UP bnd       x44                  1
 UP bnd       x45                  1
 UP bnd       x46                  1
 UP bnd       x47                  1
 UP bnd       x48                  1
 UP bnd       x49                  1
 UP bnd       x50                  1
 UP bnd       x51                  1
 UP bnd       x52                  1
 UP bnd       x53                  1
 UP bnd       x54                  1
 UP bnd       x55                  1
 UP bnd       x56                  1
 UP bnd       x57                  1
 UP bnd       x58                  1
 UP bnd       x59                  1
 UP bnd       x60                  1
ENDATA
